sifdecoder -A pc64.lnx.gfo -st   LINCONT

 Problem name: LINCONT

 Double precision version will be formed

 The objective function uses 2 linear groups
 
 There are 419 linear equality constraints
 
 There are 249 free variables
 There are 1008 fixed variables
 
 
 File successfully decoded
 CUTEST: tools (double precision version) compiled successfully
 CUTEst: ipopt (double precision version) compiled successfully

******************************************************************************
This program contains Ipopt, a library for large-scale nonlinear optimization.
 Ipopt is released as open source code under the Eclipse Public License (EPL).
         For more information visit http://projects.coin-or.org/Ipopt
******************************************************************************

This is Ipopt version trunk, running with linear solver ma57.

Too few degrees of freedom (n_x = 249, n_c = 419).
  Trying fixed_variable_treatment = RELAX_BOUNDS

Number of nonzeros in equality constraint Jacobian...:    24045
Number of nonzeros in inequality constraint Jacobian.:        0
Number of nonzeros in Lagrangian Hessian.............:     2095

Total number of variables............................:     1257
                     variables with only lower bounds:        0
                variables with lower and upper bounds:     1008
                     variables with only upper bounds:        0
Total number of equality constraints.................:      419
Total number of inequality constraints...............:        0
        inequality constraints with only lower bounds:        0
   inequality constraints with lower and upper bounds:        0
        inequality constraints with only upper bounds:        0

iter    objective    inf_pr   inf_du lg(mu)  ||d||  lg(rg) alpha_du alpha_pr  ls
   0  0.0000000e+00 2.26e+01 0.00e+00  -1.0 0.00e+00    -  0.00e+00 0.00e+00   0
Reallocating memory for MA57: lfact (180093)
   1r 0.0000000e+00 2.26e+01 9.99e+02   1.4 0.00e+00    -  0.00e+00 7.06e-10R  2
   2r 1.3201165e-12 2.26e+01 1.00e+03   1.4 1.12e+02    -  8.95e-03 4.04e-05f  3
   3r 1.5741754e-09 2.22e+01 9.84e+02  -3.2 3.82e+02    -  2.65e-03 1.45e-02f  1
   4r 1.7047363e-09 2.22e+01 9.82e+02  -3.2 2.04e+02    -  1.94e-02 2.28e-03f  1
   5r 2.3689597e-09 2.20e+01 9.66e+02  -3.2 1.46e+02    -  1.52e-02 1.66e-02f  1
   6r 2.5728959e-09 2.20e+01 9.70e+02  -3.2 1.16e+02    -  2.78e-03 5.72e-03f  1
   7r 2.7357376e-09 2.19e+01 9.53e+02  -3.2 6.28e+01    -  1.74e-02 8.01e-03f  1
   8r 3.1900550e-09 2.16e+01 9.75e+02  -3.2 1.62e+02    -  2.51e-03 1.00e-02f  1
   9r 3.2483798e-09 2.16e+01 9.93e+02  -3.2 3.61e+01    -  3.67e-02 5.89e-03f  1
iter    objective    inf_pr   inf_du lg(mu)  ||d||  lg(rg) alpha_du alpha_pr  ls
  10r 3.4848673e-09 2.27e+01 9.61e+02  -3.2 2.65e+01    -  2.78e-02 3.22e-02f  1
  11r 3.8319533e-09 8.15e+01 9.47e+02  -3.2 1.03e+02    -  3.09e-03 1.47e-02f  1
  12r 3.8947332e-09 9.01e+01 9.44e+02  -3.2 8.37e+01    -  1.50e-02 2.74e-03f  1
  13r 3.9607445e-09 9.35e+01 9.38e+02  -3.2 1.30e+02    -  1.95e-03 6.96e-03f  1
  14r 4.0005972e-09 9.88e+01 9.32e+02  -3.2 2.35e+01    -  2.45e-02 6.39e-03f  1
  15r 4.4156585e-09 1.57e+02 9.25e+02  -3.2 2.10e+02    -  6.94e-04 6.68e-03f  1
  16r 4.4823183e-09 1.67e+02 9.22e+02  -3.2 5.75e+01    -  1.54e-02 4.05e-03f  1
  17r 4.5214516e-09 1.73e+02 9.11e+02  -3.2 1.23e+01    -  4.45e-02 1.14e-02f  1
  18r 4.5214734e-09 1.73e+02 1.55e+03  -3.2 3.16e+00    -  6.61e-02 2.25e-05f  1
  19r 4.5623105e-09 1.76e+02 1.49e+03  -3.2 2.91e+00    -  3.43e-02 4.62e-02f  1
iter    objective    inf_pr   inf_du lg(mu)  ||d||  lg(rg) alpha_du alpha_pr  ls
  20r 4.5819638e-09 1.73e+02 1.49e+03  -3.2 5.40e+01    -  2.39e-03 2.81e-03f  1
  21r 4.5837168e-09 1.73e+02 1.47e+03  -3.2 2.18e+02    -  1.54e-03 5.16e-05f  1
  22r 4.6041096e-09 1.79e+02 1.40e+03  -3.2 2.35e+02    -  5.66e-03 5.62e-04f  1
  23r 4.6041787e-09 1.79e+02 1.26e+03  -3.2 1.70e+01    -  7.44e-02 1.70e-05f  1
  24r 4.9860084e-09 1.74e+02 8.68e+02  -3.2 5.54e+01    -  2.35e-03 3.33e-02f  1
  25r 4.9860084e-09 1.74e+02 9.99e+02   1.3 0.00e+00    -  0.00e+00 6.91e-10R  2
  26r-1.2377252e-09 1.74e+02 1.35e+03   1.3 7.06e+01    -  4.13e-03 6.16e-10f  3
  27r-1.2775361e-09 1.87e+02 1.28e+03  -3.4 1.01e+01    -  4.78e-02 4.89e-02f  1
  28r-1.2869836e-09 1.77e+02 1.25e+03  -3.4 9.74e+00    -  5.42e-02 2.34e-02f  1
  29r-1.3476153e-09 9.61e+01 1.16e+03  -3.4 1.76e+01    -  3.34e-02 1.23e-01f  1
iter    objective    inf_pr   inf_du lg(mu)  ||d||  lg(rg) alpha_du alpha_pr  ls
  30r-1.4269595e-09 1.46e+02 1.23e+03  -3.4 1.03e+02    -  6.33e-03 1.77e-02f  1
  31r-1.4643773e-09 1.37e+02 1.12e+03  -3.4 6.20e+01    -  2.02e-02 8.10e-03f  1
  32r-1.5252128e-09 1.15e+02 1.04e+03  -3.4 6.80e+01    -  2.35e-02 1.21e-02f  1
  33r-1.5657987e-09 9.63e+01 1.13e+03  -3.4 3.26e+01    -  7.91e-05 1.80e-02f  1
  34r-1.6445042e-09 1.10e+02 1.16e+03  -3.4 4.56e+01    -  1.87e-02 2.54e-02f  1
  35r-1.6634394e-09 1.11e+02 9.82e+02  -3.4 2.37e+01    -  3.27e-02 1.19e-02f  1
  36r-1.6635724e-09 1.11e+02 1.01e+03  -3.4 4.71e+00    -  5.61e-02 4.28e-04f  1
  37r-1.7616928e-09 8.24e+01 9.84e+02  -3.4 2.38e+02    -  3.38e-04 1.40e-02f  1
  38r-1.7641650e-09 8.37e+01 9.83e+02  -3.4 2.24e+02    -  1.19e-02 3.75e-04f  1
  39r-1.7641813e-09 8.37e+01 9.83e+02  -3.4 4.23e+00    -  5.46e-05 5.77e-05f  1
iter    objective    inf_pr   inf_du lg(mu)  ||d||  lg(rg) alpha_du alpha_pr  ls
  40r-1.7846505e-09 8.31e+01 1.57e+03  -3.4 7.25e+00    -  1.61e-02 5.66e-02f  1
  41r-1.8265561e-09 9.70e+01 1.93e+03  -3.4 4.42e+01    -  8.75e-06 1.86e-02f  1
  42r-1.8564985e-09 1.09e+02 1.91e+03  -3.4 1.54e+02    -  6.91e-03 3.98e-03f  1
  43r-1.8613073e-09 1.10e+02 1.88e+03  -3.4 1.47e+01    -  3.07e-02 4.71e-03f  1
  44r-1.8898110e-09 1.16e+02 1.84e+03  -3.4 1.59e+01    -  1.01e-02 2.57e-02f  1
  45r-1.8898253e-09 1.16e+02 1.84e+03  -3.4 2.69e+01    -  3.92e-06 7.50e-06f  1
  46r-1.8898353e-09 1.17e+02 1.84e+03  -3.4 1.87e+01    -  1.51e-02 8.19e-06f  1
  47r-1.9213991e-09 1.24e+02 1.80e+03  -3.4 6.52e+01    -  2.81e-03 6.79e-03f  1
  48r-1.9423377e-09 1.27e+02 1.71e+03  -3.4 2.74e+01    -  1.59e-03 1.09e-02f  1
  49r-1.9558378e-09 1.25e+02 1.59e+03  -3.4 1.57e+01    -  2.60e-05 1.26e-02f  1
iter    objective    inf_pr   inf_du lg(mu)  ||d||  lg(rg) alpha_du alpha_pr  ls
  50r-2.0004509e-09 1.19e+02 1.50e+03  -3.4 1.53e+01    -  3.84e-02 4.26e-02f  1
  51r-2.1691680e-09 1.20e+02 1.50e+03  -3.4 6.74e+02    -  4.18e-04 3.63e-03f  1
  52r-2.1703630e-09 1.21e+02 2.04e+03  -3.4 1.13e+01    -  7.86e-02 1.68e-03f  1
  53r-2.2048085e-09 1.29e+02 1.49e+03  -3.4 5.36e+00    -  3.72e-05 1.06e-01f  1
  54r-2.2888098e-09 1.43e+02 1.49e+03  -3.4 1.81e+02    -  1.02e-05 7.88e-03f  1
  55r-2.2888490e-09 1.43e+02 1.43e+03  -3.4 5.12e+01    -  3.47e-02 1.27e-05f  1
  56r-2.3151818e-09 1.54e+02 1.63e+03  -3.4 9.77e+00    -  2.76e-05 4.51e-02f  1
  57r-2.3156516e-09 1.54e+02 1.38e+03  -3.4 2.21e+00    -  1.10e-01 7.25e-03f  1
  58r-2.3216946e-09 1.48e+02 1.46e+03  -3.4 1.37e+00    -  6.11e-05 1.53e-01f  1
  59r-2.3217038e-09 1.48e+02 1.42e+03  -3.4 1.79e+00    -  2.98e-02 1.32e-04f  1
iter    objective    inf_pr   inf_du lg(mu)  ||d||  lg(rg) alpha_du alpha_pr  ls
  60r-2.3414374e-09 1.40e+02 3.10e+03  -3.4 1.87e+00    -  2.45e-04 3.00e-01f  1
  61r-2.3463164e-09 1.40e+02 2.53e+03  -3.4 5.26e+00    -  7.63e-02 1.77e-02f  1
  62r-2.4833002e-09 1.54e+02 2.52e+03  -3.4 8.32e+02    -  5.68e-04 2.63e-03f  1
  63r-2.4833613e-09 1.54e+02 2.52e+03  -3.4 6.58e+02    -  4.18e-03 1.49e-06f  1
  64r-2.4848589e-09 1.54e+02 2.52e+03  -3.4 1.60e+01    -  8.98e-02 1.55e-03f  1
  65r-2.5360624e-09 1.30e+02 2.50e+03  -3.4 9.13e+01    -  6.01e-05 8.65e-03f  1
  66r-2.5360846e-09 1.30e+02 2.50e+03  -3.4 1.60e+02    -  5.96e-03 2.13e-06f  1
  67r-2.6028898e-09 1.39e+02 2.13e+03  -3.4 7.94e+00    -  2.45e-02 1.47e-01f  1
  68r-2.6674522e-09 1.28e+02 2.12e+03  -3.4 1.87e+02    -  4.12e-03 5.09e-03f  1
  69r-2.6674116e-09 1.28e+02 2.10e+03  -3.4 8.92e-01    -  1.23e-01 7.03e-03f  1
iter    objective    inf_pr   inf_du lg(mu)  ||d||  lg(rg) alpha_du alpha_pr  ls
  70r-2.6610964e-09 1.21e+02 2.92e+03  -3.4 8.61e-01    -  6.28e-05 3.71e-01f  1
  71r-2.6310103e-09 1.61e+02 2.56e+03  -3.4 5.69e+01    -  4.95e-02 1.80e-02f  1
  72r-2.6310141e-09 1.61e+02 2.46e+03  -3.4 3.39e+01    -  1.11e-02 1.76e-05f  1
  73r-2.7494743e-09 1.64e+02 2.45e+03  -3.4 2.44e+02    -  2.71e-04 7.11e-03f  1
  74r-2.7721950e-09 1.57e+02 2.44e+03  -3.4 1.70e+02    -  2.18e-07 2.04e-03f  1
  75r-2.7745149e-09 1.56e+02 2.44e+03  -3.4 4.26e+01    -  1.07e-03 8.64e-04f  1
  76r-2.8764408e-09 1.14e+02 2.43e+03  -3.4 4.62e+02    -  2.09e-05 3.37e-03f  1
  77r-2.8763910e-09 1.14e+02 2.43e+03  -3.4 9.84e-01    -  2.43e-01 1.34e-03f  1
  78r-2.8785499e-09 1.21e+02 2.42e+03  -3.4 9.20e+01    -  1.86e-04 2.49e-03f  1
  79r-2.8785508e-09 1.21e+02 2.42e+03  -3.4 8.85e+01    -  3.22e-03 1.16e-06f  1
iter    objective    inf_pr   inf_du lg(mu)  ||d||  lg(rg) alpha_du alpha_pr  ls
  80r-2.8651000e-09 1.27e+02 2.12e+03  -3.4 9.14e-01    -  1.37e-01 1.27e-01f  1
  81r-2.9627924e-09 8.14e+01 2.10e+03  -3.4 1.73e+02    -  2.46e-04 8.45e-03f  1
  82r-2.9625387e-09 8.16e+01 2.09e+03  -3.4 1.20e+00    -  5.91e-02 4.34e-03f  1
  83r-3.0837463e-09 9.47e+01 2.07e+03  -3.4 2.60e+02    -  6.05e-05 7.21e-03f  1
  84r-3.0836974e-09 9.46e+01 2.07e+03  -3.4 1.71e+00    -  4.86e-02 1.05e-03f  1
  85r-3.0727885e-09 8.08e+01 1.80e+03  -3.4 2.68e+00    -  2.28e-05 1.29e-01f  1
  86r-3.0765102e-09 7.69e+01 1.80e+03  -3.4 1.57e+03    -  8.26e-05 2.70e-04f  1
  87r-3.0765118e-09 7.69e+01 1.80e+03  -3.4 4.12e+02    -  2.05e-03 4.59e-07f  1
  88r-3.0649090e-09 7.65e+01 1.66e+03  -3.4 4.47e-01    -  1.22e-01 7.84e-02f  1
  89r-3.0440442e-09 7.64e+01 1.45e+03  -3.4 7.52e-01    -  6.19e-05 1.26e-01f  1
iter    objective    inf_pr   inf_du lg(mu)  ||d||  lg(rg) alpha_du alpha_pr  ls
  90r-3.0379213e-09 9.02e+01 1.45e+03  -3.4 3.17e+02    -  1.44e-04 4.57e-03f  1
  91r-3.0379184e-09 9.03e+01 1.45e+03  -3.4 1.63e+02    -  1.30e-02 3.99e-06f  1
  92r-3.0254428e-09 1.11e+02 1.51e+03  -3.4 8.81e+00    -  1.84e-02 2.00e-01f  1
  93r-3.0253398e-09 1.11e+02 1.50e+03  -3.4 2.08e+00    -  5.55e-02 6.28e-04f  1
  94r-3.0114239e-09 1.11e+02 1.40e+03  -3.4 9.42e-01    -  2.62e-05 7.14e-02f  1
  95r-3.0027879e-09 1.33e+02 1.40e+03  -3.4 7.18e+02    -  3.91e-05 6.93e-04f  1
  96r-3.0027837e-09 1.33e+02 1.35e+03  -3.4 9.13e+01    -  2.66e-02 2.41e-06f  1
  97r-2.9432880e-09 1.18e+02 1.21e+03  -3.4 1.33e+00    -  1.56e-01 2.98e-01f  1
  98r-2.9350618e-09 1.59e+02 1.21e+03  -3.4 7.11e+02    -  7.93e-04 1.48e-03f  1
  99r-2.9350563e-09 1.59e+02 1.21e+03  -3.4 5.11e+01    -  4.44e-02 9.17e-06f  1
iter    objective    inf_pr   inf_du lg(mu)  ||d||  lg(rg) alpha_du alpha_pr  ls
 100r-2.8619914e-09 1.60e+02 8.09e+02  -3.4 3.72e-01    -  8.48e-02 3.29e-01f  1
 101r-2.8877148e-09 1.80e+02 8.08e+02  -3.4 1.17e+03    -  1.18e-04 7.74e-04f  1
 102r-2.8877253e-09 1.80e+02 8.08e+02  -3.4 7.94e+01    -  3.94e-02 5.09e-06f  1
 103r-2.8322017e-09 1.63e+02 8.91e+02  -3.4 1.43e+00    -  4.68e-02 2.74e-01f  1
 104r-2.8322094e-09 1.63e+02 8.87e+02  -3.4 1.08e+02    -  4.13e-03 1.64e-06f  1
 105r-2.8076081e-09 1.63e+02 6.43e+02  -3.4 3.87e-02    -  3.14e-01 8.71e-02f  1
 106r-2.8108965e-09 1.55e+02 6.37e+02  -3.4 2.09e+01    -  2.20e-04 9.88e-03f  1
 107r-2.8108988e-09 1.55e+02 6.40e+02  -3.4 3.94e+01    -  7.80e-03 2.33e-06f  1
 108r-2.7290583e-09 1.55e+02 1.31e+03  -3.4 2.86e-02    -  7.01e-01 2.02e-01f  1
 109r-2.5009746e-09 1.34e+02 8.99e+02  -3.4 1.97e+00    -  1.05e-03 2.15e-01f  1
iter    objective    inf_pr   inf_du lg(mu)  ||d||  lg(rg) alpha_du alpha_pr  ls
 110r-2.5002814e-09 1.34e+02 8.83e+02  -3.4 2.91e-01    -  7.90e-01 6.34e-04f  1
 111r-1.2105844e-09 1.34e+02 4.99e+02  -3.4 1.36e-01    -  1.84e-01 4.35e-01f  1
 112r 1.1893987e-09 1.34e+02 8.78e+00  -3.4 9.10e-03    -  1.00e+00 9.82e-01f  1
 113r 2.8327612e-09 1.34e+02 4.46e-09  -3.4 7.07e-03    -  1.00e+00 1.00e+00f  1
 114r 5.6644048e-09 1.34e+02 5.95e-02  -7.5 2.92e-04    -  9.78e-01 1.00e+00f  1
 115r 1.2784424e-07 1.34e+02 4.81e+01  -7.5 7.57e-07    -  5.55e-01 9.61e-01f  1
 116r 2.4577789e-07 1.34e+02 1.50e+01  -7.5 1.30e-07    -  7.37e-01 1.00e+00f  1
 117r 2.8541995e-07 1.34e+02 5.38e+01  -7.5 1.91e-07    -  5.40e-01 8.19e-01f  1
 118r 3.4211004e-07 1.34e+02 1.74e+02  -7.5 8.79e-08    -  3.78e-01 7.52e-01f  1
 119r 4.3306279e-07 1.34e+02 1.63e+02  -7.5 5.44e-08    -  4.24e-01 8.77e-01f  1
iter    objective    inf_pr   inf_du lg(mu)  ||d||  lg(rg) alpha_du alpha_pr  ls
 120r 5.6611162e-07 1.34e+02 5.74e+01  -7.5 3.34e-08    -  6.38e-01 1.00e+00f  1
 121r 7.2168526e-07 1.34e+02 5.54e-11  -7.5 1.03e-08    -  1.00e+00 1.00e+00f  1
 122r 9.2830012e-07 1.34e+02 6.36e+00  -9.0 2.24e-08    -  6.85e-01 8.57e-01f  1
 123r 1.0299192e-06 1.34e+02 1.56e+00  -9.0 4.53e-09    -  8.39e-01 9.39e-01f  1

Number of Iterations....: 123

                                   (scaled)                 (unscaled)
Objective...............:   1.0528501431595575e-06    1.0528501431595575e-06
Dual infeasibility......:   9.4168249232291483e+00    9.4168249232291483e+00
Constraint violation....:   4.7922454071093995e+01    1.3425515661081079e+02
Complementarity.........:   1.2355267695898756e-09    1.2355267695898756e-09
Overall NLP error.......:   4.7922454071093995e+01    1.3425515661081079e+02


Number of objective function evaluations             = 135
Number of objective gradient evaluations             = 5
Number of equality constraint evaluations            = 135
Number of inequality constraint evaluations          = 0
Number of equality constraint Jacobian evaluations   = 127
Number of inequality constraint Jacobian evaluations = 0
Number of Lagrangian Hessian evaluations             = 124
Total CPU secs in IPOPT (w/o function evaluations)   =      0.516
Total CPU secs in NLP function evaluations           =      0.074

EXIT: Converged to a point of local infeasibility. Problem may be infeasible.

************************ CUTEst statistics ************************


 Package used            :  IPOPT
 Problem                 :  LINCONT   
 # variables             =            1257
 # constraints           =             419
 # objective functions   =        0.1410000E+03
 # objective gradients   =        0.6000000E+01
 # objective Hessians    =        0.1230000E+03
 # Hessian-vector prdct  =        0.0000000E+00
 # constraints functions =        0.2640000E+03
 # constraints gradients =        0.1290000E+03
 # constraints Hessians  =        0.1230000E+03
 Exit code               =               2
 Final f                 =        1.0528501431595575D-06
 Bounds feasibility      =        9.9995228185574185D-09
 Set up time             =            0.25 seconds
 Solve time              =            0.94 seconds


******************************************************************

